p edge 480 2400
e 1 119
e 1 176
e 1 298
e 1 328
e 1 341
e 2 130
e 2 132
e 2 150
e 2 168
e 2 206
e 3 36
e 3 97
e 3 133
e 3 264
e 3 389
e 4 25
e 4 179
e 4 311
e 4 403
e 4 430
e 5 86
e 5 141
e 5 250
e 5 262
e 5 387
e 6 43
e 6 102
e 6 121
e 6 153
e 6 220
e 7 21
e 7 42
e 7 82
e 7 184
e 7 478
e 8 70
e 8 117
e 8 151
e 8 226
e 8 415
e 9 235
e 9 409
e 9 438
e 9 448
e 9 451
e 10 15
e 10 107
e 10 138
e 10 169
e 10 365
e 11 46
e 11 279
e 11 369
e 11 393
e 11 437
e 12 7
e 12 187
e 12 347
e 12 452
e 12 461
e 13 115
e 13 139
e 13 393
e 13 407
e 13 437
e 14 131
e 14 307
e 14 307
e 14 408
e 14 410
e 15 11
e 15 172
e 15 204
e 15 361
e 15 432
e 16 33
e 16 68
e 16 92
e 16 194
e 16 458
e 17 55
e 17 175
e 17 287
e 17 356
e 17 393
e 18 13
e 18 16
e 18 171
e 18 280
e 18 411
e 19 245
e 19 276
e 19 410
e 19 430
e 19 435
e 20 141
e 20 154
e 20 268
e 20 282
e 20 384
e 21 251
e 21 254
e 21 407
e 21 419
e 21 449
e 22 57
e 22 127
e 22 178
e 22 245
e 22 352
e 23 61
e 23 78
e 23 101
e 23 166
e 23 410
e 24 18
e 24 66
e 24 199
e 24 260
e 24 285
e 25 64
e 25 74
e 25 395
e 25 459
e 25 474
e 26 130
e 26 164
e 26 368
e 26 438
e 26 446
e 27 35
e 27 59
e 27 79
e 27 118
e 27 232
e 28 20
e 28 61
e 28 99
e 28 130
e 28 435
e 29 115
e 29 349
e 29 423
e 29 426
e 29 479
e 30 242
e 30 354
e 30 398
e 30 454
e 30 474
e 31 140
e 31 188
e 31 191
e 31 199
e 31 458
e 32 44
e 32 80
e 32 143
e 32 210
e 32 377
e 33 8
e 33 112
e 33 155
e 33 166
e 33 374
e 34 23
e 34 43
e 34 183
e 34 351
e 34 453
e 35 32
e 35 76
e 35 162
e 35 258
e 35 289
e 36 95
e 36 132
e 36 159
e 36 188
e 36 318
e 37 138
e 37 238
e 37 302
e 37 352
e 37 392
e 38 111
e 38 128
e 38 141
e 38 339
e 38 415
e 39 77
e 39 122
e 39 126
e 39 223
e 39 317
e 40 122
e 40 203
e 40 220
e 40 232
e 40 357
e 41 19
e 41 99
e 41 125
e 41 208
e 41 341
e 42 142
e 42 173
e 42 211
e 42 265
e 42 343
e 43 27
e 43 177
e 43 206
e 43 340
e 43 418
e 44 168
e 44 337
e 44 341
e 44 364
e 44 385
e 45 58
e 45 80
e 45 220
e 45 305
e 45 442
e 46 60
e 46 117
e 46 288
e 46 431
e 46 472
e 47 4
e 47 66
e 47 139
e 47 281
e 47 444
e 48 34
e 48 232
e 48 285
e 48 366
e 48 370
e 49 66
e 49 92
e 49 255
e 49 256
e 49 396
e 50 34
e 50 89
e 50 164
e 50 175
e 50 470
e 51 83
e 51 166
e 51 183
e 51 279
e 51 362
e 52 23
e 52 117
e 52 318
e 52 351
e 52 454
e 53 47
e 53 194
e 53 367
e 53 375
e 53 396
e 54 135
e 54 144
e 54 334
e 54 355
e 54 473
e 55 43
e 55 138
e 55 154
e 55 420
e 55 425
e 56 96
e 56 280
e 56 351
e 56 369
e 56 439
e 57 27
e 57 55
e 57 138
e 57 304
e 57 333
e 58 98
e 58 171
e 58 194
e 58 396
e 58 412
e 59 14
e 59 193
e 59 249
e 59 264
e 59 286
e 60 98
e 60 259
e 60 332
e 60 364
e 60 471
e 61 37
e 61 324
e 61 336
e 61 371
e 61 449
e 62 12
e 62 25
e 62 155
e 62 211
e 62 339
e 63 22
e 63 25
e 63 34
e 63 406
e 63 470
e 64 126
e 64 205
e 64 212
e 64 274
e 64 355
e 65 24
e 65 46
e 65 63
e 65 131
e 65 349
e 66 230
e 66 240
e 66 349
e 66 436
e 66 447
e 67 8
e 67 44
e 67 65
e 67 321
e 67 387
e 68 37
e 68 142
e 68 330
e 68 386
e 68 478
e 69 91
e 69 276
e 69 361
e 69 394
e 69 477
e 70 79
e 70 103
e 70 172
e 70 250
e 70 453
e 71 77
e 71 109
e 71 351
e 71 380
e 71 442
e 72 105
e 72 173
e 72 235
e 72 298
e 72 348
e 73 41
e 73 153
e 73 244
e 73 346
e 73 359
e 74 71
e 74 108
e 74 264
e 74 391
e 74 467
e 75 14
e 75 140
e 75 271
e 75 340
e 75 435
e 76 44
e 76 45
e 76 283
e 76 403
e 76 448
e 77 193
e 77 245
e 77 249
e 77 316
e 77 395
e 78 99
e 78 219
e 78 364
e 78 367
e 78 441
e 79 119
e 79 183
e 79 200
e 79 203
e 79 223
e 80 29
e 80 244
e 80 284
e 80 329
e 80 402
e 81 76
e 81 163
e 81 165
e 81 235
e 81 353
e 82 18
e 82 136
e 82 142
e 82 231
e 82 406
e 83 28
e 83 252
e 83 417
e 83 430
e 83 452
e 84 104
e 84 254
e 84 419
e 84 448
e 84 462
e 85 40
e 85 96
e 85 174
e 85 348
e 85 409
e 86 87
e 86 205
e 86 241
e 86 278
e 86 356
e 87 112
e 87 295
e 87 299
e 87 348
e 87 349
e 88 19
e 88 217
e 88 253
e 88 389
e 88 396
e 89 27
e 89 360
e 89 372
e 89 422
e 89 430
e 90 91
e 90 118
e 90 305
e 90 377
e 90 470
e 91 23
e 91 30
e 91 220
e 91 241
e 91 419
e 92 6
e 92 42
e 92 94
e 92 139
e 92 155
e 93 67
e 93 68
e 93 85
e 93 348
e 93 390
e 94 72
e 94 213
e 94 229
e 94 308
e 94 344
e 95 123
e 95 196
e 95 211
e 95 242
e 95 471
e 96 111
e 96 151
e 96 177
e 96 260
e 96 335
e 97 82
e 97 178
e 97 214
e 97 375
e 97 412
e 98 2
e 98 3
e 98 201
e 98 364
e 98 462
e 99 102
e 99 114
e 99 208
e 99 303
e 99 338
e 100 125
e 100 216
e 100 257
e 100 346
e 100 371
e 101 58
e 101 207
e 101 323
e 101 413
e 101 472
e 102 83
e 102 107
e 102 113
e 102 142
e 102 415
e 103 74
e 103 176
e 103 189
e 103 338
e 103 436
e 104 43
e 104 124
e 104 255
e 104 320
e 104 458
e 105 18
e 105 89
e 105 110
e 105 155
e 105 257
e 106 28
e 106 142
e 106 183
e 106 253
e 106 261
e 107 163
e 107 176
e 107 221
e 107 284
e 107 427
e 108 86
e 108 126
e 108 131
e 108 287
e 108 412
e 109 90
e 109 151
e 109 184
e 109 355
e 109 371
e 110 133
e 110 197
e 110 325
e 110 437
e 110 461
e 111 103
e 111 169
e 111 246
e 111 406
e 111 440
e 112 186
e 112 211
e 112 241
e 112 339
e 112 417
e 113 31
e 113 258
e 113 343
e 113 444
e 113 449
e 114 151
e 114 329
e 114 356
e 114 363
e 114 382
e 115 11
e 115 96
e 115 238
e 115 306
e 115 370
e 116 36
e 116 54
e 116 169
e 116 363
e 116 424
e 117 1
e 117 148
e 117 191
e 117 298
e 117 418
e 118 7
e 118 150
e 118 152
e 118 412
e 118 456
e 119 18
e 119 49
e 119 111
e 119 190
e 119 400
e 120 131
e 120 234
e 120 287
e 120 289
e 120 399
e 121 97
e 121 222
e 121 320
e 121 418
e 121 451
e 122 168
e 122 205
e 122 298
e 122 452
e 122 473
e 123 178
e 123 407
e 123 420
e 123 420
e 123 473
e 124 162
e 124 180
e 124 218
e 124 409
e 124 416
e 125 62
e 125 76
e 125 99
e 125 105
e 125 457
e 126 95
e 126 209
e 126 227
e 126 315
e 126 389
e 127 118
e 127 234
e 127 259
e 127 309
e 127 479
e 128 55
e 128 206
e 128 233
e 128 236
e 128 447
e 129 44
e 129 198
e 129 201
e 129 246
e 129 372
e 130 211
e 130 368
e 130 413
e 130 462
e 130 463
e 131 200
e 131 281
e 131 294
e 131 455
e 131 455
e 132 238
e 132 262
e 132 311
e 132 426
e 132 480
e 133 75
e 133 173
e 133 257
e 133 363
e 133 402
e 134 11
e 134 182
e 134 197
e 134 253
e 134 332
e 135 58
e 135 123
e 135 251
e 135 303
e 135 480
e 136 54
e 136 172
e 136 355
e 136 410
e 136 427
e 137 92
e 137 104
e 137 205
e 137 331
e 137 471
e 138 258
e 138 267
e 138 300
e 138 438
e 138 453
e 139 28
e 139 29
e 139 81
e 139 232
e 139 278
e 140 102
e 140 177
e 140 191
e 140 376
e 140 451
e 141 42
e 141 73
e 141 146
e 141 152
e 141 270
e 142 162
e 142 392
e 142 398
e 142 399
e 142 444
e 143 5
e 143 21
e 143 33
e 143 267
e 143 439
e 144 28
e 144 85
e 144 130
e 144 233
e 144 466
e 145 75
e 145 105
e 145 196
e 145 279
e 145 400
e 146 62
e 146 90
e 146 219
e 146 324
e 146 453
e 147 77
e 147 117
e 147 125
e 147 171
e 147 378
e 148 90
e 148 95
e 148 306
e 148 321
e 148 361
e 149 24
e 149 235
e 149 247
e 149 436
e 149 447
e 150 280
e 150 313
e 150 392
e 150 410
e 150 416
e 151 74
e 151 212
e 151 271
e 151 302
e 151 330
e 152 30
e 152 72
e 152 105
e 152 272
e 152 434
e 153 149
e 153 248
e 153 376
e 153 376
e 153 438
e 154 70
e 154 114
e 154 144
e 154 399
e 154 474
e 155 36
e 155 156
e 155 194
e 155 318
e 155 389
e 156 104
e 156 161
e 156 214
e 156 380
e 156 477
e 157 52
e 157 78
e 157 358
e 157 407
e 157 479
e 158 35
e 158 262
e 158 282
e 158 286
e 158 461
e 159 131
e 159 231
e 159 261
e 159 404
e 159 451
e 160 78
e 160 195
e 160 365
e 160 436
e 160 443
e 161 105
e 161 260
e 161 277
e 161 400
e 161 450
e 162 39
e 162 190
e 162 245
e 162 272
e 162 322
e 163 94
e 163 97
e 163 104
e 163 180
e 163 266
e 164 62
e 164 197
e 164 264
e 164 265
e 164 464
e 165 12
e 165 58
e 165 67
e 165 168
e 165 316
e 166 103
e 166 273
e 166 353
e 166 369
e 166 450
e 167 69
e 167 135
e 167 216
e 167 363
e 167 452
e 168 46
e 168 97
e 168 119
e 168 384
e 168 408
e 169 14
e 169 353
e 169 368
e 169 378
e 169 427
e 170 45
e 170 78
e 170 174
e 170 263
e 170 286
e 171 22
e 171 139
e 171 238
e 171 337
e 171 477
e 172 162
e 172 181
e 172 207
e 172 435
e 172 474
e 173 146
e 173 274
e 173 349
e 173 405
e 173 446
e 174 2
e 174 111
e 174 120
e 174 179
e 174 190
e 175 3
e 175 161
e 175 185
e 175 242
e 175 440
e 176 121
e 176 282
e 176 343
e 176 371
e 176 424
e 177 41
e 177 87
e 177 383
e 177 384
e 177 470
e 178 71
e 178 164
e 178 189
e 178 221
e 178 459
e 179 104
e 179 174
e 179 352
e 179 391
e 179 398
e 180 91
e 180 107
e 180 174
e 180 306
e 180 381
e 181 191
e 181 272
e 181 382
e 181 418
e 181 439
e 182 148
e 182 181
e 182 189
e 182 310
e 182 432
e 183 136
e 183 140
e 183 184
e 183 274
e 183 305
e 184 67
e 184 276
e 184 289
e 184 330
e 184 355
e 185 54
e 185 191
e 185 197
e 185 313
e 185 450
e 186 31
e 186 138
e 186 354
e 186 384
e 186 428
e 187 54
e 187 210
e 187 255
e 187 300
e 187 400
e 188 223
e 188 300
e 188 345
e 188 359
e 188 432
e 189 131
e 189 145
e 189 150
e 189 407
e 189 476
e 190 202
e 190 236
e 190 292
e 190 427
e 190 440
e 191 156
e 191 214
e 191 243
e 191 435
e 191 468
e 192 54
e 192 88
e 192 100
e 192 400
e 192 444
e 193 23
e 193 155
e 193 325
e 193 405
e 193 445
e 194 100
e 194 224
e 194 284
e 194 299
e 194 380
e 195 306
e 195 345
e 195 354
e 195 433
e 195 470
e 196 125
e 196 255
e 196 320
e 196 334
e 196 400
e 197 260
e 197 276
e 197 368
e 197 396
e 197 401
e 198 37
e 198 51
e 198 168
e 198 214
e 198 350
e 199 38
e 199 83
e 199 170
e 199 283
e 199 459
e 200 91
e 200 134
e 200 246
e 200 441
e 200 465
e 201 44
e 201 158
e 201 272
e 201 286
e 201 390
e 202 3
e 202 32
e 202 133
e 202 257
e 202 342
e 203 82
e 203 86
e 203 108
e 203 180
e 203 204
e 204 61
e 204 99
e 204 123
e 204 208
e 204 409
e 205 3
e 205 100
e 205 198
e 205 366
e 205 428
e 206 41
e 206 267
e 206 350
e 206 352
e 206 434
e 207 69
e 207 143
e 207 387
e 207 475
e 207 477
e 208 187
e 208 219
e 208 308
e 208 333
e 208 458
e 209 21
e 209 241
e 209 242
e 209 397
e 209 465
e 210 67
e 210 115
e 210 204
e 210 235
e 210 247
e 211 238
e 211 285
e 211 294
e 211 361
e 211 438
e 212 12
e 212 150
e 212 227
e 212 298
e 212 393
e 213 9
e 213 110
e 213 117
e 213 249
e 213 366
e 214 36
e 214 63
e 214 192
e 214 372
e 214 466
e 215 127
e 215 162
e 215 240
e 215 410
e 215 456
e 216 12
e 216 93
e 216 221
e 216 221
e 216 237
e 217 206
e 217 275
e 217 333
e 217 384
e 217 452
e 218 10
e 218 47
e 218 319
e 218 350
e 218 448
e 219 45
e 219 77
e 219 133
e 219 309
e 219 331
e 220 56
e 220 67
e 220 100
e 220 214
e 220 374
e 221 11
e 221 209
e 221 315
e 221 441
e 221 476
e 222 57
e 222 143
e 222 198
e 222 240
e 222 424
e 223 180
e 223 231
e 223 443
e 223 462
e 223 479
e 224 18
e 224 114
e 224 169
e 224 272
e 224 360
e 225 12
e 225 20
e 225 27
e 225 125
e 225 444
e 226 59
e 226 96
e 226 247
e 226 261
e 226 346
e 227 13
e 227 133
e 227 315
e 227 347
e 227 422
e 228 79
e 228 163
e 228 197
e 228 393
e 228 446
e 229 7
e 229 46
e 229 60
e 229 193
e 229 296
e 230 4
e 230 204
e 230 302
e 230 432
e 230 433
e 231 137
e 231 183
e 231 209
e 231 306
e 231 420
e 232 305
e 232 326
e 232 437
e 232 451
e 232 455
e 233 118
e 233 188
e 233 335
e 233 391
e 233 414
e 234 13
e 234 79
e 234 200
e 234 251
e 234 381
e 235 117
e 235 200
e 235 386
e 235 393
e 235 471
e 236 237
e 236 256
e 236 396
e 236 434
e 236 479
e 237 58
e 237 108
e 237 191
e 237 262
e 237 411
e 238 61
e 238 105
e 238 162
e 238 178
e 238 337
e 239 90
e 239 196
e 239 241
e 239 244
e 239 453
e 240 60
e 240 124
e 240 132
e 240 281
e 240 417
e 241 114
e 241 115
e 241 136
e 241 207
e 241 345
e 242 30
e 242 92
e 242 245
e 242 323
e 242 364
e 243 20
e 243 233
e 243 291
e 243 305
e 243 352
e 244 106
e 244 147
e 244 186
e 244 206
e 244 303
e 245 8
e 245 98
e 245 232
e 245 280
e 245 468
e 246 42
e 246 92
e 246 165
e 246 280
e 246 342
e 247 14
e 247 253
e 247 268
e 247 332
e 247 369
e 248 64
e 248 264
e 248 295
e 248 300
e 248 302
e 249 4
e 249 28
e 249 164
e 249 194
e 249 280
e 250 119
e 250 281
e 250 282
e 250 309
e 250 355
e 251 7
e 251 26
e 251 179
e 251 201
e 251 219
e 252 19
e 252 33
e 252 64
e 252 353
e 252 456
e 253 26
e 253 51
e 253 140
e 253 143
e 253 150
e 254 67
e 254 136
e 254 346
e 254 419
e 254 433
e 255 129
e 255 134
e 255 179
e 255 247
e 255 478
e 256 33
e 256 37
e 256 68
e 256 213
e 256 269
e 257 40
e 257 262
e 257 313
e 257 438
e 257 447
e 258 141
e 258 213
e 258 238
e 258 268
e 258 394
e 259 116
e 259 188
e 259 432
e 259 432
e 259 444
e 260 35
e 260 102
e 260 161
e 260 179
e 260 450
e 261 53
e 261 175
e 261 244
e 261 286
e 261 347
e 262 109
e 262 164
e 262 238
e 262 316
e 262 465
e 263 69
e 263 114
e 263 161
e 263 356
e 263 382
e 264 48
e 264 66
e 264 261
e 264 295
e 264 418
e 265 90
e 265 329
e 265 378
e 265 390
e 265 430
e 266 77
e 266 114
e 266 200
e 266 337
e 266 475
e 267 39
e 267 136
e 267 315
e 267 366
e 267 426
e 268 133
e 268 171
e 268 267
e 268 354
e 268 467
e 269 73
e 269 217
e 269 230
e 269 290
e 269 375
e 270 47
e 270 196
e 270 210
e 270 236
e 270 460
e 271 88
e 271 97
e 271 269
e 271 274
e 271 478
e 272 103
e 272 158
e 272 221
e 272 334
e 272 387
e 273 107
e 273 221
e 273 310
e 273 334
e 273 364
e 274 29
e 274 216
e 274 297
e 274 358
e 274 373
e 275 101
e 275 299
e 275 303
e 275 305
e 275 441
e 276 114
e 276 347
e 276 435
e 276 439
e 276 446
e 277 27
e 277 30
e 277 60
e 277 255
e 277 269
e 278 174
e 278 218
e 278 263
e 278 447
e 278 464
e 279 55
e 279 128
e 279 200
e 279 403
e 279 433
e 280 211
e 280 230
e 280 275
e 280 317
e 280 344
e 281 5
e 281 57
e 281 456
e 281 465
e 281 472
e 282 37
e 282 92
e 282 226
e 282 272
e 282 343
e 283 64
e 283 88
e 283 268
e 283 402
e 283 478
e 284 22
e 284 81
e 284 172
e 284 222
e 284 443
e 285 89
e 285 120
e 285 175
e 285 221
e 285 262
e 286 176
e 286 205
e 286 229
e 286 230
e 286 254
e 287 29
e 287 111
e 287 283
e 287 303
e 287 416
e 288 52
e 288 77
e 288 404
e 288 427
e 288 480
e 289 261
e 289 356
e 289 400
e 289 408
e 289 475
e 290 31
e 290 130
e 290 371
e 290 374
e 290 453
e 291 142
e 291 161
e 291 380
e 291 434
e 291 455
e 292 55
e 292 94
e 292 214
e 292 254
e 292 303
e 293 19
e 293 84
e 293 245
e 293 276
e 293 343
e 294 194
e 294 252
e 294 312
e 294 352
e 294 421
e 295 147
e 295 362
e 295 369
e 295 414
e 295 466
e 296 28
e 296 55
e 296 164
e 296 180
e 296 338
e 297 27
e 297 28
e 297 265
e 297 290
e 297 390
e 298 22
e 298 92
e 298 193
e 298 272
e 298 461
e 299 52
e 299 77
e 299 178
e 299 304
e 299 308
e 300 234
e 300 297
e 300 322
e 300 381
e 300 480
e 301 112
e 301 139
e 301 212
e 301 252
e 301 435
e 302 93
e 302 124
e 302 165
e 302 277
e 302 375
e 303 58
e 303 128
e 303 201
e 303 308
e 303 319
e 304 16
e 304 51
e 304 234
e 304 260
e 304 395
e 305 133
e 305 168
e 305 178
e 305 370
e 305 430
e 306 38
e 306 228
e 306 333
e 306 404
e 306 411
e 307 30
e 307 110
e 307 176
e 307 343
e 307 393
e 308 244
e 308 336
e 308 369
e 308 379
e 308 381
e 309 80
e 309 100
e 309 346
e 309 367
e 309 377
e 310 134
e 310 261
e 310 341
e 310 413
e 310 419
e 311 5
e 311 88
e 311 165
e 311 184
e 311 398
e 312 21
e 312 107
e 312 198
e 312 322
e 312 455
e 313 249
e 313 326
e 313 408
e 313 429
e 313 439
e 314 210
e 314 291
e 314 319
e 314 348
e 314 475
e 315 14
e 315 44
e 315 182
e 315 221
e 315 321
e 316 24
e 316 284
e 316 297
e 316 384
e 316 428
e 317 152
e 317 183
e 317 293
e 317 316
e 317 458
e 318 47
e 318 84
e 318 154
e 318 423
e 318 449
e 319 56
e 319 89
e 319 202
e 319 461
e 319 479
e 320 50
e 320 77
e 320 94
e 320 249
e 320 457
e 321 8
e 321 114
e 321 215
e 321 353
e 321 384
e 322 10
e 322 82
e 322 298
e 322 304
e 322 351
e 323 5
e 323 103
e 323 137
e 323 281
e 323 477
e 324 50
e 324 56
e 324 68
e 324 173
e 324 228
e 325 185
e 325 207
e 325 215
e 325 240
e 325 415
e 326 54
e 326 122
e 326 162
e 326 383
e 326 403
e 327 52
e 327 79
e 327 333
e 327 439
e 327 454
e 328 23
e 328 45
e 328 156
e 328 380
e 328 450
e 329 72
e 329 131
e 329 141
e 329 258
e 329 382
e 330 81
e 330 81
e 330 84
e 330 263
e 330 444
e 331 13
e 331 183
e 331 233
e 331 321
e 331 368
e 332 105
e 332 240
e 332 288
e 332 319
e 332 453
e 333 78
e 333 175
e 333 366
e 333 399
e 333 461
e 334 41
e 334 77
e 334 131
e 334 210
e 334 387
e 335 14
e 335 55
e 335 306
e 335 338
e 335 428
e 336 170
e 336 290
e 336 382
e 336 389
e 336 461
e 337 121
e 337 233
e 337 367
e 337 384
e 337 467
e 338 85
e 338 91
e 338 277
e 338 314
e 338 419
e 339 171
e 339 289
e 339 301
e 339 368
e 339 472
e 340 49
e 340 87
e 340 182
e 340 235
e 340 330
e 341 6
e 341 95
e 341 171
e 341 259
e 341 327
e 342 46
e 342 188
e 342 262
e 342 413
e 342 430
e 343 13
e 343 287
e 343 313
e 343 319
e 343 411
e 344 1
e 344 40
e 344 60
e 344 346
e 344 443
e 345 226
e 345 233
e 345 338
e 345 422
e 345 429
e 346 90
e 346 121
e 346 178
e 346 368
e 346 418
e 347 157
e 347 169
e 347 260
e 347 379
e 347 410
e 348 124
e 348 299
e 348 346
e 348 351
e 348 393
e 349 1
e 349 134
e 349 223
e 349 435
e 349 443
e 350 71
e 350 268
e 350 321
e 350 384
e 350 387
e 351 62
e 351 70
e 351 121
e 351 206
e 351 389
e 352 71
e 352 240
e 352 261
e 352 408
e 352 435
e 353 175
e 353 222
e 353 366
e 353 384
e 353 412
e 354 143
e 354 152
e 354 311
e 354 352
e 354 424
e 355 41
e 355 75
e 355 81
e 355 116
e 355 379
e 356 263
e 356 263
e 356 291
e 356 293
e 356 365
e 357 17
e 357 35
e 357 175
e 357 246
e 357 269
e 358 21
e 358 83
e 358 109
e 358 153
e 358 245
e 359 25
e 359 128
e 359 184
e 359 186
e 359 203
e 360 43
e 360 56
e 360 158
e 360 286
e 360 310
e 361 135
e 361 149
e 361 217
e 361 413
e 361 427
e 362 331
e 362 335
e 362 370
e 362 412
e 362 441
e 363 135
e 363 273
e 363 310
e 363 317
e 363 353
e 364 102
e 364 129
e 364 163
e 364 269
e 364 473
e 365 7
e 365 238
e 365 258
e 365 337
e 365 409
e 366 38
e 366 95
e 366 101
e 366 264
e 366 340
e 367 120
e 367 126
e 367 223
e 367 283
e 367 415
e 368 150
e 368 197
e 368 315
e 368 376
e 368 444
e 369 20
e 369 149
e 369 194
e 369 285
e 369 298
e 370 117
e 370 245
e 370 385
e 370 431
e 370 435
e 371 123
e 371 133
e 371 195
e 371 271
e 371 399
e 372 82
e 372 125
e 372 264
e 372 312
e 372 362
e 373 11
e 373 101
e 373 174
e 373 192
e 373 290
e 374 73
e 374 196
e 374 223
e 374 388
e 374 391
e 375 62
e 375 120
e 375 157
e 375 271
e 375 290
e 376 256
e 376 258
e 376 336
e 376 367
e 376 439
e 377 62
e 377 179
e 377 275
e 377 417
e 377 432
e 378 98
e 378 167
e 378 177
e 378 381
e 378 386
e 379 95
e 379 162
e 379 230
e 379 232
e 379 354
e 380 12
e 380 48
e 380 107
e 380 297
e 380 360
e 381 117
e 381 120
e 381 270
e 381 338
e 381 461
e 382 27
e 382 48
e 382 211
e 382 246
e 382 367
e 383 88
e 383 119
e 383 167
e 383 209
e 383 358
e 384 15
e 384 116
e 384 217
e 384 278
e 384 294
e 385 67
e 385 300
e 385 328
e 385 440
e 385 453
e 386 15
e 386 21
e 386 57
e 386 158
e 386 190
e 387 31
e 387 115
e 387 126
e 387 176
e 387 472
e 388 9
e 388 163
e 388 351
e 388 372
e 388 402
e 389 11
e 389 126
e 389 203
e 389 208
e 389 414
e 390 37
e 390 95
e 390 122
e 390 234
e 390 330
e 391 10
e 391 16
e 391 212
e 391 324
e 391 476
e 392 181
e 392 312
e 392 361
e 392 378
e 392 411
e 393 140
e 393 141
e 393 197
e 393 209
e 393 222
e 394 95
e 394 242
e 394 270
e 394 355
e 394 468
e 395 133
e 395 225
e 395 229
e 395 257
e 395 263
e 396 3
e 396 141
e 396 154
e 396 263
e 396 266
e 397 71
e 397 78
e 397 164
e 397 295
e 397 470
e 398 67
e 398 72
e 398 401
e 398 436
e 398 469
e 399 113
e 399 150
e 399 280
e 399 288
e 399 463
e 400 30
e 400 50
e 400 129
e 400 360
e 400 469
e 401 110
e 401 125
e 401 197
e 401 204
e 401 454
e 402 71
e 402 87
e 402 315
e 402 345
e 402 406
e 403 97
e 403 200
e 403 243
e 403 465
e 403 477
e 404 119
e 404 250
e 404 301
e 404 317
e 404 352
e 405 285
e 405 356
e 405 371
e 405 382
e 405 460
e 406 87
e 406 291
e 406 404
e 406 416
e 406 422
e 407 69
e 407 408
e 407 439
e 407 443
e 407 451
e 408 269
e 408 300
e 408 345
e 408 439
e 408 454
e 409 50
e 409 145
e 409 155
e 409 232
e 409 280
e 410 98
e 410 266
e 410 297
e 410 306
e 410 418
e 411 6
e 411 35
e 411 153
e 411 263
e 411 288
e 412 156
e 412 239
e 412 271
e 412 306
e 412 313
e 413 8
e 413 57
e 413 68
e 413 188
e 413 250
e 414 2
e 414 49
e 414 143
e 414 201
e 414 359
e 415 83
e 415 159
e 415 308
e 415 339
e 415 444
e 416 117
e 416 154
e 416 255
e 416 294
e 416 399
e 417 75
e 417 150
e 417 228
e 417 271
e 417 368
e 418 56
e 418 88
e 418 122
e 418 146
e 418 340
e 419 21
e 419 160
e 419 208
e 419 474
e 419 479
e 420 176
e 420 217
e 420 333
e 420 350
e 420 472
e 421 48
e 421 87
e 421 244
e 421 393
e 421 474
e 422 63
e 422 101
e 422 194
e 422 229
e 422 394
e 423 17
e 423 57
e 423 271
e 423 352
e 423 434
e 424 2
e 424 82
e 424 190
e 424 283
e 424 340
e 425 15
e 425 156
e 425 201
e 425 211
e 425 370
e 426 9
e 426 163
e 426 170
e 426 297
e 426 347
e 427 7
e 427 25
e 427 56
e 427 199
e 427 374
e 428 55
e 428 290
e 428 298
e 428 365
e 428 388
e 429 85
e 429 154
e 429 172
e 429 285
e 429 291
e 430 4
e 430 214
e 430 219
e 430 235
e 430 314
e 431 26
e 431 86
e 431 227
e 431 242
e 431 314
e 432 87
e 432 87
e 432 195
e 432 350
e 432 398
e 433 236
e 433 297
e 433 328
e 433 467
e 433 479
e 434 21
e 434 41
e 434 75
e 434 145
e 434 244
e 435 49
e 435 76
e 435 123
e 435 224
e 435 414
e 436 27
e 436 171
e 436 336
e 436 346
e 436 388
e 437 28
e 437 65
e 437 327
e 437 464
e 437 470
e 438 31
e 438 129
e 438 169
e 438 171
e 438 241
e 439 139
e 439 196
e 439 214
e 439 282
e 439 476
e 440 172
e 440 282
e 440 345
e 440 451
e 440 463
e 441 36
e 441 309
e 441 372
e 441 452
e 441 476
e 442 76
e 442 82
e 442 88
e 442 187
e 442 329
e 443 130
e 443 132
e 443 277
e 443 361
e 443 426
e 444 13
e 444 30
e 444 121
e 444 403
e 444 475
e 445 11
e 445 22
e 445 185
e 445 365
e 445 404
e 446 52
e 446 53
e 446 111
e 446 334
e 446 356
e 447 97
e 447 137
e 447 201
e 447 423
e 447 431
e 448 4
e 448 71
e 448 180
e 448 417
e 448 419
e 449 247
e 449 389
e 449 457
e 449 458
e 449 476
e 450 77
e 450 95
e 450 182
e 450 371
e 450 405
e 451 80
e 451 206
e 451 286
e 451 374
e 451 438
e 452 72
e 452 201
e 452 276
e 452 305
e 452 445
e 453 85
e 453 160
e 453 256
e 453 257
e 453 368
e 454 4
e 454 181
e 454 290
e 454 291
e 454 427
e 455 11
e 455 126
e 455 357
e 455 395
e 455 427
e 456 69
e 456 207
e 456 236
e 456 299
e 456 333
e 457 46
e 457 65
e 457 74
e 457 99
e 457 215
e 458 22
e 458 128
e 458 308
e 458 308
e 458 451
e 459 43
e 459 79
e 459 99
e 459 170
e 459 201
e 460 134
e 460 279
e 460 348
e 460 366
e 460 380
e 461 148
e 461 336
e 461 373
e 461 408
e 461 411
e 462 1
e 462 19
e 462 145
e 462 183
e 462 229
e 463 27
e 463 127
e 463 143
e 463 151
e 463 326
e 464 67
e 464 302
e 464 347
e 464 404
e 464 445
e 465 112
e 465 244
e 465 382
e 465 434
e 465 478
e 466 84
e 466 209
e 466 371
e 466 433
e 466 470
e 467 31
e 467 32
e 467 149
e 467 281
e 467 291
e 468 37
e 468 48
e 468 109
e 468 167
e 468 182
e 469 173
e 469 383
e 469 392
e 469 409
e 469 464
e 470 140
e 470 329
e 470 399
e 470 426
e 470 464
e 471 51
e 471 143
e 471 155
e 471 373
e 471 462
e 472 32
e 472 48
e 472 110
e 472 210
e 472 418
e 473 105
e 473 111
e 473 178
e 473 415
e 473 465
e 474 119
e 474 167
e 474 292
e 474 319
e 474 418
e 475 22
e 475 69
e 475 267
e 475 303
e 475 321
e 476 3
e 476 105
e 476 186
e 476 386
e 476 465
e 477 359
e 477 369
e 477 374
e 477 394
e 477 440
e 478 176
e 478 224
e 478 405
e 478 431
e 478 454
e 479 81
e 479 125
e 479 190
e 479 206
e 479 324
e 480 53
e 480 127
e 480 156
e 480 293
e 480 414
